55738
24, 20, 50, 38, 8, 44, 32, 41, 19, 48, 17, 23, 53, 34, 54, 47, 30, 4, 18, 12, 14, 9, 16, 39, 46, 36, 15, 52, 45, 11, 31, 25, 1, 27, 33, 42, 2, 22, 10, 29, 21, 49, 26, 55, 28, 6, 3, 43, 13, 40, 51, 7, 37, 5, 35
